p edge 65 1040
e 1 2
e 1 3
e 1 4
e 1 5
e 1 6
e 1 7
e 1 8
e 1 9
e 1 10
e 1 11
e 1 12
e 1 13
e 1 14
e 1 15
e 1 16
e 1 17
e 1 18
e 1 19
e 1 20
e 1 21
e 1 22
e 1 23
e 1 24
e 1 25
e 1 26
e 1 27
e 1 28
e 1 29
e 1 30
e 1 31
e 1 32
e 1 33
e 2 3
e 2 4
e 2 5
e 2 6
e 2 7
e 2 8
e 2 9
e 2 10
e 2 11
e 2 12
e 2 13
e 2 14
e 2 15
e 2 16
e 2 17
e 2 34
e 2 35
e 2 36
e 2 37
e 2 38
e 2 39
e 2 40
e 2 41
e 2 42
e 2 43
e 2 44
e 2 45
e 2 46
e 2 47
e 2 48
e 2 49
e 3 4
e 3 6
e 3 11
e 3 13
e 3 16
e 3 18
e 3 19
e 3 20
e 3 23
e 3 26
e 3 28
e 3 29
e 3 32
e 3 33
e 3 37
e 3 39
e 3 40
e 3 41
e 3 43
e 3 44
e 3 45
e 3 46
e 3 48
e 3 51
e 3 53
e 3 56
e 3 58
e 3 62
e 3 64
e 3 65
e 4 5
e 4 6
e 4 12
e 4 14
e 4 18
e 4 20
e 4 23
e 4 26
e 4 29
e 4 30
e 4 31
e 4 32
e 4 33
e 4 34
e 4 35
e 4 38
e 4 40
e 4 42
e 4 44
e 4 46
e 4 47
e 4 49
e 4 54
e 4 57
e 4 59
e 4 60
e 4 63
e 4 64
e 4 65
e 5 6
e 5 8
e 5 15
e 5 16
e 5 17
e 5 19
e 5 21
e 5 22
e 5 23
e 5 25
e 5 27
e 5 31
e 5 32
e 5 34
e 5 36
e 5 40
e 5 41
e 5 42
e 5 43
e 5 46
e 5 49
e 5 52
e 5 55
e 5 56
e 5 57
e 5 58
e 5 63
e 5 64
e 5 65
e 6 9
e 6 15
e 6 16
e 6 20
e 6 21
e 6 22
e 6 24
e 6 25
e 6 27
e 6 29
e 6 33
e 6 38
e 6 39
e 6 41
e 6 43
e 6 44
e 6 45
e 6 47
e 6 48
e 6 50
e 6 54
e 6 55
e 6 59
e 6 61
e 6 63
e 6 64
e 6 65
e 7 9
e 7 10
e 7 11
e 7 13
e 7 14
e 7 15
e 7 19
e 7 21
e 7 23
e 7 27
e 7 30
e 7 31
e 7 32
e 7 33
e 7 34
e 7 35
e 7 38
e 7 43
e 7 44
e 7 45
e 7 47
e 7 48
e 7 52
e 7 53
e 7 54
e 7 55
e 7 56
e 7 58
e 7 60
e 7 65
e 8 10
e 8 12
e 8 14
e 8 15
e 8 17
e 8 18
e 8 20
e 8 21
e 8 22
e 8 24
e 8 26
e 8 31
e 8 33
e 8 36
e 8 37
e 8 39
e 8 41
e 8 44
e 8 45
e 8 46
e 8 49
e 8 52
e 8 53
e 8 56
e 8 58
e 8 59
e 8 60
e 8 61
e 8 65
e 9 10
e 9 14
e 9 16
e 9 17
e 9 20
e 9 22
e 9 24
e 9 25
e 9 27
e 9 28
e 9 29
e 9 32
e 9 34
e 9 35
e 9 40
e 9 41
e 9 44
e 9 47
e 9 48
e 9 49
e 9 51
e 9 52
e 9 53
e 9 57
e 9 60
e 9 61
e 9 62
e 9 65
e 10 12
e 10 14
e 10 16
e 10 19
e 10 24
e 10 25
e 10 26
e 10 28
e 10 29
e 10 30
e 10 31
e 10 34
e 10 36
e 10 38
e 10 43
e 10 44
e 10 45
e 10 46
e 10 48
e 10 56
e 10 57
e 10 58
e 10 59
e 10 61
e 10 62
e 10 63
e 10 64
e 11 13
e 11 14
e 11 15
e 11 17
e 11 19
e 11 22
e 11 23
e 11 26
e 11 27
e 11 29
e 11 31
e 11 33
e 11 36
e 11 37
e 11 39
e 11 42
e 11 43
e 11 47
e 11 48
e 11 49
e 11 51
e 11 52
e 11 54
e 11 57
e 11 59
e 11 61
e 11 62
e 11 64
e 12 13
e 12 16
e 12 17
e 12 21
e 12 23
e 12 24
e 12 27
e 12 29
e 12 30
e 12 32
e 12 33
e 12 36
e 12 37
e 12 38
e 12 40
e 12 42
e 12 46
e 12 47
e 12 48
e 12 50
e 12 51
e 12 53
e 12 56
e 12 59
e 12 60
e 12 61
e 12 63
e 13 14
e 13 15
e 13 17
e 13 18
e 13 19
e 13 22
e 13 24
e 13 25
e 13 30
e 13 32
e 13 35
e 13 37
e 13 40
e 13 41
e 13 42
e 13 45
e 13 48
e 13 50
e 13 55
e 13 56
e 13 59
e 13 60
e 13 62
e 13 63
e 13 64
e 13 65
e 14 22
e 14 25
e 14 28
e 14 29
e 14 30
e 14 31
e 14 33
e 14 37
e 14 39
e 14 41
e 14 42
e 14 44
e 14 46
e 14 49
e 14 50
e 14 51
e 14 54
e 14 55
e 14 57
e 14 58
e 14 60
e 14 63
e 14 65
e 15 16
e 15 17
e 15 18
e 15 21
e 15 26
e 15 27
e 15 28
e 15 30
e 15 35
e 15 36
e 15 39
e 15 45
e 15 46
e 15 47
e 15 53
e 15 54
e 15 55
e 15 57
e 15 60
e 15 61
e 15 62
e 15 63
e 15 64
e 15 65
e 16 17
e 16 23
e 16 25
e 16 26
e 16 28
e 16 30
e 16 32
e 16 37
e 16 38
e 16 42
e 16 43
e 16 45
e 16 49
e 16 50
e 16 51
e 16 52
e 16 53
e 16 54
e 16 58
e 16 61
e 16 62
e 16 63
e 16 65
e 17 20
e 17 24
e 17 28
e 17 31
e 17 32
e 17 33
e 17 35
e 17 38
e 17 39
e 17 40
e 17 47
e 17 49
e 17 50
e 17 51
e 17 52
e 17 55
e 17 56
e 17 57
e 17 58
e 17 59
e 17 62
e 17 64
e 18 20
e 18 21
e 18 22
e 18 25
e 18 26
e 18 28
e 18 29
e 18 30
e 18 31
e 18 32
e 18 34
e 18 35
e 18 36
e 18 39
e 18 42
e 18 44
e 18 45
e 18 47
e 18 48
e 18 49
e 18 50
e 18 52
e 18 53
e 18 56
e 18 62
e 18 63
e 19 20
e 19 21
e 19 23
e 19 24
e 19 25
e 19 28
e 19 29
e 19 30
e 19 32
e 19 34
e 19 36
e 19 37
e 19 40
e 19 41
e 19 45
e 19 46
e 19 47
e 19 49
e 19 52
e 19 54
e 19 55
e 19 58
e 19 59
e 19 61
e 19 64
e 20 22
e 20 24
e 20 26
e 20 28
e 20 30
e 20 32
e 20 33
e 20 35
e 20 36
e 20 37
e 20 38
e 20 41
e 20 43
e 20 47
e 20 48
e 20 49
e 20 54
e 20 55
e 20 56
e 20 57
e 20 58
e 20 60
e 20 61
e 21 24
e 21 25
e 21 27
e 21 28
e 21 29
e 21 30
e 21 31
e 21 37
e 21 38
e 21 39
e 21 40
e 21 41
e 21 42
e 21 43
e 21 44
e 21 47
e 21 51
e 21 52
e 21 53
e 21 54
e 21 56
e 21 60
e 21 64
e 22 23
e 22 24
e 22 25
e 22 26
e 22 27
e 22 31
e 22 34
e 22 36
e 22 37
e 22 38
e 22 41
e 22 42
e 22 47
e 22 48
e 22 51
e 22 53
e 22 55
e 22 58
e 22 59
e 22 62
e 22 63
e 22 65
e 23 24
e 23 25
e 23 26
e 23 27
e 23 30
e 23 33
e 23 34
e 23 35
e 23 36
e 23 38
e 23 39
e 23 46
e 23 48
e 23 49
e 23 50
e 23 51
e 23 52
e 23 53
e 23 58
e 23 60
e 23 64
e 23 65
e 24 25
e 24 30
e 24 33
e 24 34
e 24 35
e 24 36
e 24 37
e 24 39
e 24 40
e 24 43
e 24 44
e 24 50
e 24 53
e 24 54
e 24 57
e 24 59
e 24 62
e 24 64
e 24 65
e 25 26
e 25 29
e 25 38
e 25 39
e 25 40
e 25 42
e 25 45
e 25 46
e 25 48
e 25 49
e 25 50
e 25 52
e 25 54
e 25 55
e 25 56
e 25 57
e 25 60
e 25 62
e 26 27
e 26 30
e 26 31
e 26 35
e 26 37
e 26 38
e 26 40
e 26 43
e 26 44
e 26 45
e 26 46
e 26 51
e 26 52
e 26 55
e 26 57
e 26 59
e 26 60
e 26 61
e 26 62
e 27 28
e 27 29
e 27 32
e 27 33
e 27 34
e 27 35
e 27 36
e 27 41
e 27 42
e 27 43
e 27 44
e 27 46
e 27 50
e 27 51
e 27 55
e 27 56
e 27 59
e 27 60
e 27 61
e 27 62
e 28 29
e 28 31
e 28 32
e 28 34
e 28 35
e 28 36
e 28 37
e 28 38
e 28 39
e 28 41
e 28 46
e 28 50
e 28 51
e 28 54
e 28 58
e 28 60
e 28 62
e 28 63
e 28 64
e 29 33
e 29 35
e 29 36
e 29 39
e 29 40
e 29 42
e 29 45
e 29 47
e 29 51
e 29 52
e 29 56
e 29 57
e 29 58
e 29 59
e 29 61
e 29 63
e 29 65
e 30 35
e 30 41
e 30 42
e 30 43
e 30 44
e 30 47
e 30 49
e 30 50
e 30 51
e 30 53
e 30 55
e 30 57
e 30 58
e 30 61
e 30 63
e 30 64
e 31 32
e 31 33
e 31 34
e 31 38
e 31 40
e 31 41
e 31 43
e 31 45
e 31 48
e 31 50
e 31 51
e 31 52
e 31 53
e 31 54
e 31 57
e 31 59
e 31 63
e 31 64
e 32 34
e 32 37
e 32 42
e 32 44
e 32 46
e 32 48
e 32 50
e 32 52
e 32 53
e 32 54
e 32 55
e 32 56
e 32 57
e 32 59
e 32 61
e 32 65
e 33 34
e 33 39
e 33 40
e 33 43
e 33 45
e 33 49
e 33 50
e 33 53
e 33 54
e 33 55
e 33 56
e 33 58
e 33 60
e 33 61
e 33 62
e 33 63
e 34 35
e 34 36
e 34 37
e 34 38
e 34 39
e 34 40
e 34 42
e 34 44
e 34 45
e 34 49
e 34 53
e 34 55
e 34 61
e 34 62
e 34 63
e 34 64
e 35 36
e 35 38
e 35 39
e 35 40
e 35 41
e 35 42
e 35 43
e 35 45
e 35 50
e 35 52
e 35 57
e 35 58
e 35 59
e 35 60
e 35 65
e 36 37
e 36 43
e 36 45
e 36 46
e 36 47
e 36 48
e 36 49
e 36 50
e 36 51
e 36 54
e 36 56
e 36 57
e 36 63
e 36 65
e 37 38
e 37 39
e 37 40
e 37 42
e 37 43
e 37 44
e 37 51
e 37 52
e 37 54
e 37 55
e 37 60
e 37 61
e 37 63
e 37 65
e 38 39
e 38 42
e 38 45
e 38 47
e 38 48
e 38 51
e 38 54
e 38 55
e 38 56
e 38 58
e 38 59
e 38 60
e 38 64
e 39 42
e 39 44
e 39 46
e 39 48
e 39 50
e 39 52
e 39 53
e 39 55
e 39 57
e 39 58
e 39 61
e 39 64
e 40 41
e 40 43
e 40 45
e 40 46
e 40 47
e 40 51
e 40 52
e 40 53
e 40 55
e 40 57
e 40 60
e 40 62
e 40 63
e 41 42
e 41 43
e 41 45
e 41 46
e 41 48
e 41 49
e 41 50
e 41 51
e 41 53
e 41 58
e 41 59
e 41 60
e 41 61
e 41 64
e 42 43
e 42 49
e 42 53
e 42 54
e 42 56
e 42 57
e 42 58
e 42 59
e 42 61
e 42 62
e 43 44
e 43 48
e 43 50
e 43 52
e 43 54
e 43 56
e 43 57
e 43 58
e 43 62
e 43 63
e 44 46
e 44 47
e 44 49
e 44 50
e 44 51
e 44 52
e 44 55
e 44 56
e 44 59
e 44 62
e 44 64
e 44 65
e 45 49
e 45 50
e 45 51
e 45 53
e 45 54
e 45 55
e 45 56
e 45 59
e 45 61
e 45 65
e 46 47
e 46 48
e 46 50
e 46 53
e 46 54
e 46 55
e 46 57
e 46 58
e 46 59
e 46 60
e 46 62
e 47 48
e 47 49
e 47 51
e 47 52
e 47 53
e 47 54
e 47 55
e 47 58
e 47 59
e 47 62
e 47 63
e 48 50
e 48 52
e 48 53
e 48 56
e 48 57
e 48 60
e 48 61
e 48 63
e 48 64
e 49 50
e 49 51
e 49 52
e 49 54
e 49 56
e 49 60
e 49 61
e 49 62
e 49 64
e 50 51
e 50 52
e 50 54
e 50 55
e 50 59
e 50 63
e 51 53
e 51 55
e 51 56
e 51 57
e 51 64
e 51 65
e 52 58
e 52 59
e 52 60
e 52 61
e 52 63
e 52 65
e 53 54
e 53 57
e 53 58
e 53 61
e 53 62
e 53 65
e 54 57
e 54 59
e 54 60
e 54 62
e 54 65
e 55 56
e 55 57
e 55 58
e 55 61
e 55 63
e 56 57
e 56 58
e 56 60
e 56 62
e 56 64
e 56 65
e 57 61
e 57 64
e 57 65
e 58 59
e 58 62
e 58 63
e 58 65
e 59 61
e 59 62
e 59 64
e 59 65
e 60 61
e 60 62
e 60 63
e 60 64
e 60 65
e 61 63
e 61 64
e 62 63
e 62 64
e 63 64
e 63 65
e 64 65
